20
10
1832543444
0
0
44 48 62 49 51 57 48 47 50 51
1
0
49 44 43 58 45 50 42 46 50 56
2
0
49 49 59 44 54 49 52 51 55 51
3
0
51 42 55 47 52 46 50 45 56 49
4
0
56 56 42 56 51 50 50 47 42 46
5
0
52 54 56 52 53 47 50 52 52 52
6
0
43 43 51 50 58 50 53 55 46 42
7
0
47 59 52 56 36 48 48 45 60 61
8
0
46 45 45 48 47 42 52 51 45 50
9
0
52 47 52 43 55 54 43 45 48 39
10
0
49 51 49 57 41 43 55 45 57 58
11
0
41 46 50 50 52 51 42 50 46 43
12
0
43 45 49 53 50 47 64 47 43 47
13
0
55 47 51 50 57 57 46 41 49 58
14
0
49 34 47 41 48 52 47 54 46 52
15
0
41 46 49 52 41 50 52 56 53 52
16
0
49 56 49 44 54 54 50 51 57 50
17
0
56 58 46 54 42 54 51 50 52 47
18
0
56 48 58 42 42 52 48 52 56 57
19
0
48 51 52 55 52 55 48 57 52 46
